44255 13763
37322 32994
24017 42894
7554 63701
4388 11007
57033 53350
58354 62418
28422 55882
56345 12885
65356 42498
55031 60000
42498 13064
8264 16245
33060 36000
12159 56230
32707 30513
16109 1138
4693 46162
21326 26651
35767 17424
13266 43245
12033 13049
54565 56543
46804 48712
1631 55484
60024 20564
64285 63728
15576 16778
16933 27508
35949 59297
17136 56116
